26
 1 182 7
 2 200 8
 3 456 19
 4 46 2
 5 264 12
 6 294 14
 7 340 17
 8 38 2
 9 342 19
 10 255 15
 11 48 3
 12 225 15
 13 196 14
 14 182 14
 15 120 10
 16 55 5
 17 30 3
 18 72 8
 19 128 16
 20 70 10
 21 114 19
 22 5 1
 23 20 5
 24 51 17
 25 38 19
 26 15 15
338